2, 1

2, 0

3, 2

3, 1

5, 2

3, 0

4, 2

0, 1

0, 0

4, 1

1, 1

4, 0

5, 1

5, 0

0, 2

6, 2

6, 1

2, 2

1, 2

1, 0

